MARKOV
376
 2 2 2 2 2 2 2 2 2 2 2 2 2 2 2 2 2 2 2 2 2 2 2 2 2 2 2 2 2 2 2 2 2 2 2 2 2 2 2 2 2 2 2 2 2 2 2 2 2 2 2 2 2 2 2 2 2 2 2 2 2 2 2 2 2 2 2 2 2 2 2 2 2 2 2 2 2 2 2 2 2 2 2 2 2 2 2 2 2 2 2 2 2 2 2 2 2 2 2 2 2 2 2 2 2 2 2 2 2 2 2 2 2 2 2 2 2 2 2 2 2 2 2 2 2 2 2 2 2 2 2 2 2 2 2 2 2 2 2 2 2 2 2 2 2 2 2 2 2 2 2 2 2 2 2 2 2 2 2 2 2 2 2 2 2 2 2 2 2 2 2 2 2 2 2 2 2 2 2 2 2 2 2 2 2 2 2 2 2 2 2 2 2 2 2 2 2 2 2 2 2 2 2 2 2 2 2 2 2 2 2 2 2 2 2 2 2 2 2 2 2 2 2 2 2 2 2 2 2 2 2 2 2 2 2 2 2 2 2 2 2 2 2 2 2 2 2 2 2 2 2 2 2 2 2 2 2 2 2 2 2 2 2 2 2 2 2 2 2 2 2 2 2 2 2 2 2 2 2 2 2 2 2 2 2 2 2 2 2 2 2 2 2 2 2 2 2 2 2 2 2 2 2 2 2 2 2 2 2 2 2 2 2 2 2 2 2 2 2 2 2 2 2 2 2 2 2 2 2 2 2 2 2 2 2 2 2 2 2 2 2 2 2 2 2 2 2 2 2 2 2 2 2 2 2 2 2 2 2 2 2 2 2 2 2 2 2 2 2 2 2 2 2 2 2 2
379
3	71 141 375 
3	49 374 375 
3	96 373 374 
3	50 372 373 
3	81 371 372 
3	168 370 371 
3	35 369 370 
3	83 368 369 
3	43 367 368 
3	57 366 367 
3	39 365 366 
3	75 364 365 
3	132 363 364 
3	167 362 363 
3	130 361 362 
3	54 360 361 
3	155 359 360 
3	31 358 359 
3	98 357 358 
3	46 356 357 
3	121 355 356 
3	134 354 355 
3	111 353 354 
3	138 352 353 
3	91 351 352 
3	11 350 351 
3	139 349 350 
3	174 348 349 
3	55 347 348 
3	82 346 347 
3	4 345 346 
3	52 344 345 
3	108 343 344 
3	179 342 343 
3	164 341 342 
3	169 340 341 
3	23 339 340 
3	44 338 339 
3	140 337 338 
3	80 336 337 
3	32 335 336 
3	21 334 335 
3	110 333 334 
3	33 332 333 
3	73 331 332 
3	107 330 331 
3	90 329 330 
3	2 328 329 
3	38 327 328 
3	176 326 327 
3	163 325 326 
3	51 324 325 
3	76 323 324 
3	116 322 323 
3	58 321 322 
3	142 320 321 
3	45 319 320 
3	22 318 319 
3	154 317 318 
3	102 316 317 
3	24 315 316 
3	86 314 315 
3	126 313 314 
3	144 312 313 
3	97 311 312 
3	37 310 311 
3	63 309 310 
3	89 308 309 
3	17 307 308 
3	12 306 307 
3	42 305 306 
3	147 304 305 
3	114 303 304 
3	103 302 303 
3	47 301 302 
3	25 300 301 
3	161 299 300 
3	182 298 299 
3	146 297 298 
3	92 296 297 
3	84 295 296 
3	78 294 295 
3	156 293 294 
3	148 292 293 
3	69 291 292 
3	61 290 291 
3	157 289 290 
3	124 288 289 
3	135 287 288 
3	72 286 287 
3	14 285 286 
3	162 284 285 
3	27 283 284 
3	19 282 283 
3	104 281 282 
3	153 280 281 
3	118 279 280 
3	136 278 279 
3	165 277 278 
3	53 276 277 
3	60 275 276 
3	67 274 275 
3	129 273 274 
3	99 272 273 
3	30 271 272 
3	151 270 271 
3	137 269 270 
3	178 268 269 
3	8 267 268 
3	172 266 267 
3	29 265 266 
3	180 264 265 
3	158 263 264 
3	160 262 263 
3	120 261 262 
3	93 260 261 
3	105 259 260 
3	131 258 259 
3	13 257 258 
3	100 256 257 
3	106 255 256 
3	109 254 255 
3	77 253 254 
3	0 252 253 
3	159 251 252 
3	10 250 251 
3	87 249 250 
3	133 248 249 
3	36 247 248 
3	127 246 247 
3	6 245 246 
3	64 244 245 
3	88 243 244 
3	85 242 243 
3	152 241 242 
3	173 240 241 
3	119 239 240 
3	181 238 239 
3	9 237 238 
3	28 236 237 
3	123 235 236 
3	117 234 235 
3	115 233 234 
3	95 232 233 
3	15 231 232 
3	40 230 231 
3	16 229 230 
3	177 228 229 
3	62 227 228 
3	184 226 227 
3	74 225 226 
3	41 224 225 
3	170 223 224 
3	171 222 223 
1	222 
3	71 143 221 
3	18 220 221 
3	5 219 220 
3	94 218 219 
3	59 217 218 
3	183 216 217 
3	69 215 216 
3	7 214 215 
3	48 213 214 
3	3 212 213 
3	1 211 212 
3	72 210 211 
3	112 209 210 
3	20 208 209 
3	56 207 208 
3	122 206 207 
3	128 205 206 
3	34 204 205 
3	53 203 204 
3	26 202 203 
3	82 201 202 
3	145 200 201 
3	150 199 200 
3	70 198 199 
3	79 197 198 
3	178 196 197 
3	101 195 196 
3	140 194 195 
3	149 193 194 
3	175 192 193 
3	125 191 192 
3	68 190 191 
3	66 189 190 
3	182 188 189 
3	65 187 188 
3	113 186 187 
3	166 185 186 
1	185 
1	141 
1	49 
1	96 
1	94 
1	83 
1	7 
1	39 
1	57 
1	132 
1	155 
1	31 
1	98 
1	134 
1	138 
1	111 
1	91 
1	174 
1	4 
1	108 
1	52 
1	164 
1	70 
1	44 
1	23 
1	33 
1	107 
1	73 
1	38 
1	5 
1	163 
1	51 
1	76 
1	142 
1	45 
1	122 
1	102 
1	86 
1	97 
1	37 
1	12 
1	147 
1	114 
1	175 
1	25 
1	68 
1	161 
1	182 
1	143 
1	69 
1	157 
1	135 
1	72 
1	27 
1	153 
1	118 
1	136 
1	165 
1	53 
1	26 
1	67 
1	99 
1	151 
1	8 
1	172 
1	29 
1	180 
1	158 
1	149 
1	160 
1	120 
1	131 
1	13 
1	159 
1	18 
1	133 
1	36 
1	127 
1	112 
1	85 
1	152 
1	56 
1	28 
1	117 
1	95 
1	40 
1	101 
1	16 
1	177 
1	62 
1	184 
1	170 
1	71 
1	50 
1	81 
1	59 
1	168 
1	35 
1	43 
1	48 
1	75 
1	130 
1	167 
1	54 
1	121 
1	46 
1	11 
1	139 
1	34 
1	55 
1	82 
1	145 
1	179 
1	169 
1	140 
1	80 
1	32 
1	110 
1	21 
1	125 
1	90 
1	2 
1	113 
1	166 
1	176 
1	116 
1	58 
1	20 
1	22 
1	154 
1	128 
1	24 
1	126 
1	144 
1	63 
1	89 
1	17 
1	42 
1	103 
1	47 
1	146 
1	92 
1	84 
1	78 
1	156 
1	148 
1	183 
1	61 
1	124 
1	3 
1	14 
1	162 
1	19 
1	104 
1	60 
1	129 
1	30 
1	79 
1	137 
1	178 
1	93 
1	105 
1	66 
1	100 
1	106 
1	109 
1	77 
1	0 
1	10 
1	87 
1	1 
1	6 
1	64 
1	88 
1	173 
1	119 
1	181 
1	9 
1	123 
1	150 
1	115 
1	15 
1	74 
1	65 
1	41 
1	171 
0	

8
 1 0 0.9 0.1 0.9 0.1 0.81 0.19
8
 1 0 0 1 0 0 1 1
8
 1 0 0 1 0.3 0 0.7 1
8
 1 0 0 1 0.05 0 0.95 1
8
 1 0 0 1 0.5 0 0.5 1
8
 1 0 0 1 0.9 0 0.1 1
8
 1 0 0 1 0 0 1 1
8
 1 0 0 1 0.5 0 0.5 1
8
 1 0 0 1 0.5 0 0.5 1
8
 1 0 0 1 0.5 0 0.5 1
8
 1 0 0 1 0.89 0 0.11 1
8
 1 0 0 1 0.9 0 0.1 1
8
 1 0 0 1 0.9 0 0.1 1
8
 1 0 0 1 0.5 0 0.5 1
8
 1 0 0 1 0.9 0 0.1 1
8
 1 0 0 1 0.9 0 0.1 1
8
 1 0 0 1 0.5 0 0.5 1
8
 1 0 0 1 0.9 0 0.1 1
8
 1 0 0 1 0 0 1 1
8
 1 0 0 1 0.89 0 0.11 1
8
 1 0 0 1 0.9 0 0.1 1
8
 1 0 0 1 0.9 0 0.1 1
8
 1 0 0 1 0.5 0 0.5 1
8
 1 0 0 1 0.05 0 0.95 1
8
 1 0 0 1 0.89 0 0.11 1
8
 1 0 0 1 0.9 0 0.1 1
8
 1 0 0 1 0.4 0 0.6 1
8
 1 0 0 1 0.9 0 0.1 1
8
 1 0 0 1 0.9 0 0.1 1
8
 1 0 0 1 0.8 0 0.2 1
8
 1 0 0 1 0.9 0 0.1 1
8
 1 0 0 1 0.94 0 0.06 1
8
 1 0 0 1 0.5 0 0.5 1
8
 1 0 0 1 0.89 0 0.11 1
8
 1 0 0 1 0.3 0 0.7 1
8
 1 0 0 1 0.02 0 0.98 1
8
 1 0 0 1 0.5 0 0.5 1
8
 1 0 0 1 0.9 0 0.1 1
8
 1 0 0 1 0.9 0 0.1 1
8
 1 0 0 1 0.3 0 0.7 1
8
 1 0 0 1 0.9 0 0.1 1
8
 1 0 0 1 0.9 0 0.1 1
8
 1 0 0 1 0.5 0 0.5 1
8
 1 0 0 1 0.3 0 0.7 1
8
 1 0 0 1 0.09 0 0.91 1
8
 1 0 0 1 0.3 0 0.7 1
8
 1 0 0 1 0.9 0 0.1 1
8
 1 0 0 1 0.9 0 0.1 1
8
 1 0 0 1 0.3 0 0.7 1
8
 1 0 0 1 0.94 0 0.06 1
8
 1 0 0 1 0.5 0 0.5 1
8
 1 0 0 1 0.9 0 0.1 1
8
 1 0 0 1 0.79 0 0.21 1
8
 1 0 0 1 0.5 0 0.5 1
8
 1 0 0 1 0.5 0 0.5 1
8
 1 0 0 1 0.9 0 0.1 1
8
 1 0 0 1 0.01 0 0.99 1
8
 1 0 0 1 0.89 0 0.11 1
8
 1 0 0 1 0.8 0 0.2 1
8
 1 0 0 1 0.3 0 0.7 1
8
 1 0 0 1 0.89 0 0.11 1
8
 1 0 0 1 0.9 0 0.1 1
8
 1 0 0 1 0.9 0 0.1 1
8
 1 0 0 1 0.85 0 0.15 1
8
 1 0 0 1 0.89 0 0.11 1
8
 1 0 0 1 0.89 0 0.11 1
8
 1 0 0 1 0.8 0 0.2 1
8
 1 0 0 1 0.89 0 0.11 1
8
 1 0 0 1 0.3 0 0.7 1
8
 1 0 0 1 0.8 0 0.2 1
8
 1 0 0 1 0.9 0 0.1 1
8
 1 0 0 1 0.9 0 0.1 1
8
 1 0 0 1 0.5 0 0.5 1
8
 1 0 0 1 0.5 0 0.5 1
8
 1 0 0 1 0.9 0 0.1 1
8
 1 0 0 1 0.8 0 0.2 1
8
 1 0 0 1 0.01 0 0.99 1
8
 1 0 0 1 0.9 0 0.1 1
8
 1 0 0 1 0.9 0 0.1 1
8
 1 0 0 1 0.8 0 0.2 1
8
 1 0 0 1 0.7 0 0.3 1
8
 1 0 0 1 0.2 0 0.8 1
8
 1 0 0 1 0.05 0 0.95 1
8
 1 0 0 1 0.8 0 0.2 1
8
 1 0 0 1 0.9 0 0.1 1
8
 1 0 0 1 0.3 0 0.7 1
8
 1 0 0 1 0.9 0 0.1 1
8
 1 0 0 1 0.9 0 0.1 1
8
 1 0 0 1 0.5 0 0.5 1
8
 1 0 0 1 0.9 0 0.1 1
8
 1 0 0 1 0.5 0 0.5 1
8
 1 0 0 1 0 0 1 1
8
 1 0 0 1 0.4 0 0.6 1
8
 1 0 0 1 0.9 0 0.1 1
8
 1 0 0 1 0.3 0 0.7 1
8
 1 0 0 1 0.8 0 0.2 1
8
 1 0 0 1 0.89 0 0.11 1
8
 1 0 0 1 0.3 0 0.7 1
8
 1 0 0 1 0.8 0 0.2 1
8
 1 0 0 1 0.61 0 0.39 1
8
 1 0 0 1 0.86 0 0.14 1
8
 1 0 0 1 0.9 0 0.1 1
8
 1 0 0 1 0.94 0 0.06 1
8
 1 0 0 1 0.3 0 0.7 1
8
 1 0 0 1 0.01 0 0.99 1
8
 1 0 0 1 0.9 0 0.1 1
8
 1 0 0 1 0.9 0 0.1 1
8
 1 0 0 1 0.9 0 0.1 1
8
 1 0 0 1 0.9 0 0.1 1
8
 1 0 0 1 0.5 0 0.5 1
8
 1 0 0 1 0.1 0 0.9 1
8
 1 0 0 1 0.9 0 0.1 1
8
 1 0 0 1 0.9 0 0.1 1
8
 1 0 0 1 0.9 0 0.1 1
8
 1 0 0 1 0.9 0 0.1 1
8
 1 0 0 1 0 0 1 1
8
 1 0 0 1 0.9 0 0.1 1
8
 1 0 0 1 0.5 0 0.5 1
8
 1 0 0 1 0.5 0 0.5 1
8
 1 0 0 1 0.1 0 0.9 1
8
 1 0 0 1 0 0 1 1
8
 1 0 0 1 0 0 1 1
8
 1 0 0 1 0.3 0 0.7 1
8
 1 0 0 1 0.5 0 0.5 1
8
 1 0 0 1 0.2 0 0.8 1
8
 1 0 0 1 0.9 0 0.1 1
8
 1 0 0 1 0.5 0 0.5 1
8
 1 0 0 1 0.89 0 0.11 1
8
 1 0 0 1 0.8 0 0.2 1
8
 1 0 0 1 0.89 0 0.11 1
8
 1 0 0 1 0.89 0 0.11 1
8
 1 0 0 1 0.89 0 0.11 1
8
 1 0 0 1 0.9 0 0.1 1
8
 1 0 0 1 0.5 0 0.5 1
8
 1 0 0 1 0.5 0 0.5 1
8
 1 0 0 1 0.3 0 0.7 1
8
 1 0 0 1 0.9 0 0.1 1
8
 1 0 0 1 0.8 0 0.2 1
8
 1 0 0 1 0.8 0 0.2 1
8
 1 0 0 1 0.5 0 0.5 1
8
 1 0 0 1 0.8 0 0.2 1
8
 1 0 0 1 0.5 0 0.5 1
8
 1 0 0 1 0.9 0 0.1 1
8
 1 0 0 1 0 0 1 1
8
 1 0 0 1 0.3 0 0.7 1
8
 1 0 0 1 0.5 0 0.5 1
8
 1 0 0 1 0.4 0 0.6 1
8
 1 0 0 1 0.8 0 0.2 1
8
 1 0 0 1 0.9 0 0.1 1
8
 1 0 0 1 0.9 0 0.1 1
8
 1 0 0 1 0.89 0 0.11 1
8
 1 0 0 1 0.9 0 0.1 1
8
 1 0 0 1 0.89 0 0.11 1
8
 1 0 0 1 0.94 0 0.06 1
2
 0.03 1
8
 1 0 0.5 0.5 0.5 0.5 0.25 0.75
8
 1 0 0 1 0.8 0 0.2 1
8
 1 0 0 1 0.9 0 0.1 1
8
 1 0 0 1 0.01 0 0.99 1
8
 1 0 0 1 0.6 0 0.4 1
8
 1 0 0 1 0.4 0 0.6 1
8
 1 0 0 1 0.5 0 0.5 1
8
 1 0 0 1 0.2 0 0.8 1
8
 1 0 0 1 0.5 0 0.5 1
8
 1 0 0 1 0.1 0 0.9 1
8
 1 0 0 1 0.6 0 0.4 1
8
 1 0 0 1 0.5 0 0.5 1
8
 1 0 0 1 0.1 0 0.9 1
8
 1 0 0 1 0.5 0 0.5 1
8
 1 0 0 1 0.1 0 0.9 1
8
 1 0 0 1 0.1 0 0.9 1
8
 1 0 0 1 0.5 0 0.5 1
8
 1 0 0 1 0.5 0 0.5 1
8
 1 0 0 1 0.75 0 0.25 1
8
 1 0 0 1 0.5 0 0.5 1
8
 1 0 0 1 0.5 0 0.5 1
8
 1 0 0 1 0.05 0 0.95 1
8
 1 0 0 1 0.2 0 0.8 1
8
 1 0 0 1 0.5 0 0.5 1
8
 1 0 0 1 0.5 0 0.5 1
8
 1 0 0 1 0.2 0 0.8 1
8
 1 0 0 1 0.1 0 0.9 1
8
 1 0 0 1 0.5 0 0.5 1
8
 1 0 0 1 0.5 0 0.5 1
8
 1 0 0 1 0.05 0 0.95 1
8
 1 0 0 1 0.3 0 0.7 1
8
 1 0 0 1 0.5 0 0.5 1
8
 1 0 0 1 0.01 0 0.99 1
8
 1 0 0 1 0.5 0 0.5 1
8
 1 0 0 1 0.5 0 0.5 1
8
 1 0 0 1 0.5 0 0.5 1
8
 1 0 0 1 0.1 0 0.9 1
2
 0.03 1
2
 0.9995 0.0005
2
 0.99995 5e-05
2
 0.99997 3e-05
2
 0.99996 4e-05
2
 0.9999 0.0001
2
 0.9992 0.0008
2
 0.9999 0.0001
2
 0.9999 0.0001
2
 0.999999 8.1e-07
2
 0.9999 0.0001
2
 0.99975 0.00025
2
 0.99998 2e-05
2
 0.999993 7e-06
2
 0.9981 0.0019
2
 0.9999 0.0001
2
 0.9999 0.0001
2
 1 4e-08
2
 0.99989 0.00011
2
 0.99975 0.00025
2
 0.999999 1.4e-06
2
 0.99995 5e-05
2
 0.9999 0.0001
2
 0.999977 2.342e-05
2
 0.9999 0.0001
2
 0.99998 2e-05
2
 0.99994 6e-05
2
 0.9996 0.0004
2
 0.99998 2e-05
2
 0.99999 1e-05
2
 0.99974 0.00026
2
 0.999998 2e-06
2
 0.9999 0.0001
2
 1 1.1e-07
2
 0.99998 2e-05
2
 0.9998 0.0002
2
 0.99999 1e-05
2
 0.999999 1.26e-06
2
 0.99996 4e-05
2
 0.9999 0.0001
2
 1 1e-08
2
 1 1.7e-07
2
 0.9995 0.0005
2
 0.9999 0.0001
2
 1 1.1e-07
2
 0.99992 8e-05
2
 0.99997 3e-05
2
 0.99989 0.00011
2
 0.99989 0.00011
2
 0.9996 0.0004
2
 1 6e-08
2
 0.99995 5e-05
2
 0.999973 2.7e-05
2
 0.9999 0.0001
2
 0.999999 1e-06
2
 0.9999 0.0001
2
 0.99999 1e-05
2
 1 1e-08
2
 0.9999 0.0001
2
 0.999 0.001
2
 0.99991 9e-05
2
 0.99998 2e-05
2
 0.99986 0.00014
2
 0.99982 0.00018
2
 0.9995 0.0005
2
 0.9999 0.0001
2
 0.99999 1e-05
2
 0.999997 2.88e-06
2
 0.9995 0.0005
2
 0.99922 0.00078
2
 0.99995 5e-05
2
 0.9998 0.0002
2
 0.9991 0.0009
2
 0.9999 0.0001
2
 0.99998 2e-05
2
 0.9999 0.0001
2
 0.99999 1e-05
2
 0.9999 0.0001
2
 0.9998 0.0002
2
 0.9997 0.0003
2
 0.9999 0.0001
2
 0.9996 0.0004
2
 0.999 0.001
2
 0.999 0.001
2
 0.99991 9e-05
2
 0.998 0.002
2
 0.9996 0.0004
2
 0.99996 4e-05
2
 1 4e-08
2
 1 1e-08
2
 1 4e-08
2
 0.9999 0.0001
2
 0.99985 0.00015
2
 0.99999 1e-05
2
 0.9999 0.0001
2
 0.9995 0.0005
2
 0.999977 2.291e-05
2
 0.9996 0.0004
2
 0.9995 0.0005
2
 0.999999 1e-06
2
 0.9985 0.0015
2
 0.99995 5e-05
2
 0.9999 0.0001
2
 1 1e-08
2
 0.9995 0.0005
2
 0.999784 0.000216
2
 0.99998 2.003e-05
2
 0.9995 0.0005
2
 0.9999 0.0001
2
 0.9997 0.0003
2
 0.999999 6.2e-07
2
 0.9995 0.0005
2
 0.9999 0.0001
2
 0.99995 5e-05
2
 1 1.2e-07
2
 0.99998 2e-05
2
 1 2.8e-07
2
 0.99995 5e-05
2
 0.999991 8.59e-06
2
 0.99992 8e-05
2
 0.999999 1e-06
2
 0.9997 0.0003
2
 0.999997 2.82e-06
2
 0.99999 1e-05
2
 1 2e-08
2
 0.9999 0.0001
2
 0.9999 0.0001
2
 0.9994 0.0006
2
 0.9999 0.0001
2
 0.999907 9.332e-05
2
 0.99989 0.00011
2
 0.9999 0.0001
2
 0.999969 3.12e-05
2
 0.999999 5.4e-07
2
 0.999999 1e-06
2
 0.9999 0.0001
2
 0.99997 3e-05
2
 0.999999 1e-06
2
 0.99975 0.00025
2
 1 1e-08
2
 0.99999 1e-05
2
 1 1.4e-07
2
 0.9998 0.0002
2
 0.999953 4.733e-05
2
 0.9999 0.0001
2
 0.99999 1e-05
2
 0.999 0.001
2
 0.99995 5e-05
2
 0.99994 6e-05
2
 0.99991 9e-05
2
 0.99991 9e-05
2
 0.999 0.001
2
 0.9999 0.0001
2
 0.99999 1e-05
2
 1 2.9e-07
2
 1 6e-08
2
 0.9998 0.0002
2
 0.9979 0.0021
2
 0.999994 6e-06
2
 0.9998 0.0002
2
 0.99998 2e-05
2
 0.9999 0.0001
2
 0.9996 0.0004
2
 0.99997 3e-05
2
 0.99994 6e-05
2
 0.99999 1e-05
2
 0.99997 3e-05
2
 0.999999 1e-06
2
 1 1e-08
2
 0.99996 4e-05
2
 0.999999 1e-06
2
 0.9999 0.0001
2
 0.9999 0.0001
2
 1 1e-08
2
 0.99998 2e-05
2
 1 1e-07
2
 0.99989 0.00011
2
 1 1e-07
2
 0.99997 3e-05
2
 0.9995 0.0005
2
 0.999585 0.000415
2
 0.9999 0.0001
2
 0.9999 0.0001
2
 0.999 0.001
2
 0.9999 0.0001
2
 1 5e-07
1
 1

